NAME : portcgen-16-15
COMMENT : portcgen N=16, seed=15
TYPE : TSP
DIMENSION : 16
EDGE_WEIGHT_TYPE : EUC_2D
NODE_COORD_SECTION
1 129606 118587
2 -424939 -289887
3 197750 76386
4 217584 370460
5 57263 -390817
6 412171 -382738
7 303564 -9922
8 -280343 193585
9 421559 116905
10 -57727 -312849
11 111484 171747
12 -214961 204997
13 406489 -305718
14 -210596 -291202
15 369256 21336
16 -49817 -356582
